NAME acceleration_srl_ilp
* Max problem is converted into Min one
ROWS
 N  OBJ
 L  constraint1_5690
 L  constraint1_3250
 L  constraint1_650
 L  constraint1_3870
 L  constraint1_4500
 L  constraint1_4060
 L  constraint1_4990
 L  constraint1_4410
 L  constraint1_3000
 L  constraint1_2760
 L  constraint1_3350
 L  constraint1_5668
 L  constraint1_5661
 L  constraint1_5665
 L  constraint1_5662
 L  constraint1_5667
 L  constraint1_5664
 L  constraint1_5666
 L  constraint1_5663
 L  constraint1_5660
 L  constraint2_5690
 L  constraint2_5691
 L  constraint2_5692
 L  constraint2_5693
 L  constraint2_3250
 L  constraint2_3251
 L  constraint2_3252
 L  constraint2_3253
 L  constraint2_650
 L  constraint2_651
 L  constraint2_652
 L  constraint2_653
 L  constraint2_3870
 L  constraint2_3871
 L  constraint2_3872
 L  constraint2_3873
 L  constraint2_4500
 L  constraint2_4501
 L  constraint2_4502
 L  constraint2_4503
 L  constraint2_4060
 L  constraint2_4061
 L  constraint2_4062
 L  constraint2_4063
 L  constraint2_4990
 L  constraint2_4991
 L  constraint2_4992
 L  constraint2_4993
 L  constraint2_4410
 L  constraint2_4411
 L  constraint2_4412
 L  constraint2_4413
 L  constraint2_3000
 L  constraint2_3001
 L  constraint2_3002
 L  constraint2_3003
 L  constraint2_2760
 L  constraint2_2761
 L  constraint2_2762
 L  constraint2_2763
 L  constraint2_3350
 L  constraint2_3351
 L  constraint2_3352
 L  constraint2_3353
 L  constraint2_5660
 L  constraint2_5661
 L  constraint2_5662
 L  constraint2_5663
COLUMNS
    MARKER    'MARKER'                 'INTORG'
    Z_569_0_0  OBJ       -4.9998174950276479e-04
    Z_569_0_0  constraint1_5690  1
    Z_569_0_0  constraint2_5690  1
    Z_569_0_1  OBJ       -4.8290913153540095e-02
    Z_569_0_1  constraint1_5690  1
    Z_569_0_1  constraint2_5691  1
    Z_569_0_2  OBJ       -3.7311445841678986e-01
    Z_569_0_2  constraint1_5690  1
    Z_569_0_2  constraint2_5692  1
    Z_569_0_3  OBJ       -7.7972032080283922e-03
    Z_569_0_3  constraint1_5690  1
    Z_569_0_3  constraint2_5693  1
    Z_325_0_0  OBJ       -1.7941146318861158e-02
    Z_325_0_0  constraint1_3250  1
    Z_325_0_0  constraint2_3250  1
    Z_325_0_1  OBJ       -7.5090714637114531e-01
    Z_325_0_1  constraint1_3250  1
    Z_325_0_1  constraint2_3251  1
    Z_325_0_2  OBJ       -1.5509313534012237e-02
    Z_325_0_2  constraint1_3250  1
    Z_325_0_2  constraint2_3252  1
    Z_325_0_3  OBJ       -8.8976982483597630e-02
    Z_325_0_3  constraint1_3250  1
    Z_325_0_3  constraint2_3253  1
    Z_65_0_0  OBJ       -1.8463540220678643e-02
    Z_65_0_0  constraint1_650  1
    Z_65_0_0  constraint2_650  1
    Z_65_0_1  OBJ       -6.1673840261481017e-01
    Z_65_0_1  constraint1_650  1
    Z_65_0_1  constraint2_651  1
    Z_65_0_2  OBJ       -2.9413657463961417e-02
    Z_65_0_2  constraint1_650  1
    Z_65_0_2  constraint2_652  1
    Z_65_0_3  OBJ       -2.3077722970371534e-01
    Z_65_0_3  constraint1_650  1
    Z_65_0_3  constraint2_653  1
    Z_387_0_0  OBJ       -8.3452111271547728e-03
    Z_387_0_0  constraint1_3870  1
    Z_387_0_0  constraint2_3870  1
    Z_387_0_1  OBJ       -1.1001848337158829e-01
    Z_387_0_1  constraint1_3870  1
    Z_387_0_1  constraint2_3871  1
    Z_387_0_2  OBJ       -1.0473019160028629e-02
    Z_387_0_2  constraint1_3870  1
    Z_387_0_2  constraint2_3872  1
    Z_387_0_3  OBJ       -3.8994971916622809e-02
    Z_387_0_3  constraint1_3870  1
    Z_387_0_3  constraint2_3873  1
    Z_450_0_0  OBJ       -2.1117997087616726e-02
    Z_450_0_0  constraint1_4500  1
    Z_450_0_0  constraint2_4500  1
    Z_450_0_1  OBJ       -6.0858366112606546e-02
    Z_450_0_1  constraint1_4500  1
    Z_450_0_1  constraint2_4501  1
    Z_450_0_2  OBJ       -1.6943680314090129e-01
    Z_450_0_2  constraint1_4500  1
    Z_450_0_2  constraint2_4502  1
    Z_450_0_3  OBJ       -4.0842192972887562e-02
    Z_450_0_3  constraint1_4500  1
    Z_450_0_3  constraint2_4503  1
    Z_406_0_0  OBJ       -8.1444127996576528e-03
    Z_406_0_0  constraint1_4060  1
    Z_406_0_0  constraint2_4060  1
    Z_406_0_1  OBJ       -1.7950607327963008e-02
    Z_406_0_1  constraint1_4060  1
    Z_406_0_1  constraint2_4061  1
    Z_406_0_2  OBJ       -6.1731397414800415e-01
    Z_406_0_2  constraint1_4060  1
    Z_406_0_2  constraint2_4062  1
    Z_406_0_3  OBJ       -1.5146704774154309e-02
    Z_406_0_3  constraint1_4060  1
    Z_406_0_3  constraint2_4063  1
    Z_499_0_0  OBJ       -8.4532450126802664e-03
    Z_499_0_0  constraint1_4990  1
    Z_499_0_0  constraint2_4990  1
    Z_499_0_1  OBJ       -1.2949399031783316e-02
    Z_499_0_1  constraint1_4990  1
    Z_499_0_1  constraint2_4991  1
    Z_499_0_2  OBJ       -6.1677410716665060e-01
    Z_499_0_2  constraint1_4990  1
    Z_499_0_2  constraint2_4992  1
    Z_499_0_3  OBJ       -1.3438914892555475e-02
    Z_499_0_3  constraint1_4990  1
    Z_499_0_3  constraint2_4993  1
    Z_441_0_0  OBJ       -9.8996841080256307e-03
    Z_441_0_0  constraint1_4410  1
    Z_441_0_0  constraint2_4410  1
    Z_441_0_1  OBJ       -1.3221594468951139e-01
    Z_441_0_1  constraint1_4410  1
    Z_441_0_1  constraint2_4411  1
    Z_441_0_2  OBJ       -7.8501961855288911e-03
    Z_441_0_2  constraint1_4410  1
    Z_441_0_2  constraint2_4412  1
    Z_441_0_3  OBJ       -3.1381132542788501e-02
    Z_441_0_3  constraint1_4410  1
    Z_441_0_3  constraint2_4413  1
    Z_300_0_0  OBJ       -8.3645486789172691e-02
    Z_300_0_0  constraint1_3000  1
    Z_300_0_0  constraint2_3000  1
    Z_300_0_1  OBJ       -7.2872403215721498e-02
    Z_300_0_1  constraint1_3000  1
    Z_300_0_1  constraint2_3001  1
    Z_300_0_2  OBJ       -9.6462546121796836e-03
    Z_300_0_2  constraint1_3000  1
    Z_300_0_2  constraint2_3002  1
    Z_300_0_3  OBJ       -2.8541429201180094e-02
    Z_300_0_3  constraint1_3000  1
    Z_300_0_3  constraint2_3003  1
    Z_276_0_0  OBJ       -8.7938719260003420e-02
    Z_276_0_0  constraint1_2760  1
    Z_276_0_0  constraint2_2760  1
    Z_276_0_1  OBJ       -7.5016318785291669e-01
    Z_276_0_1  constraint1_2760  1
    Z_276_0_1  constraint2_2761  1
    Z_276_0_2  OBJ       -6.5246256244344330e-03
    Z_276_0_2  constraint1_2760  1
    Z_276_0_2  constraint2_2762  1
    Z_276_0_3  OBJ       -3.1286696998837342e-02
    Z_276_0_3  constraint1_2760  1
    Z_276_0_3  constraint2_2763  1
    Z_335_0_0  OBJ       -4.5561477297370943e-02
    Z_335_0_0  constraint1_3350  1
    Z_335_0_0  constraint2_3350  1
    Z_335_0_1  OBJ       -4.9545896766977604e-01
    Z_335_0_1  constraint1_3350  1
    Z_335_0_1  constraint2_3351  1
    Z_335_0_2  OBJ       -2.7321081199295019e-02
    Z_335_0_2  constraint1_3350  1
    Z_335_0_2  constraint2_3352  1
    Z_335_0_3  OBJ       -2.9275181886806718e-03
    Z_335_0_3  constraint1_3350  1
    Z_335_0_3  constraint2_3353  1
    Z_566_8_0  OBJ       -2.5878092920961892e-02
    Z_566_8_0  constraint1_5668  1
    Z_566_8_0  constraint2_5660  1
    Z_566_8_1  OBJ       -3.3702298518100408e-02
    Z_566_8_1  constraint1_5668  1
    Z_566_8_1  constraint2_5661  1
    Z_566_8_2  OBJ       -1.4174740792303972e-01
    Z_566_8_2  constraint1_5668  1
    Z_566_8_2  constraint2_5662  1
    Z_566_8_3  OBJ       -3.4258523814193510e-02
    Z_566_8_3  constraint1_5668  1
    Z_566_8_3  constraint2_5663  1
    Z_566_1_0  OBJ       -6.4077902230055385e-03
    Z_566_1_0  constraint1_5661  1
    Z_566_1_0  constraint2_5660  1
    Z_566_1_1  OBJ       -1.1595500412963788e-02
    Z_566_1_1  constraint1_5661  1
    Z_566_1_1  constraint2_5661  1
    Z_566_1_2  OBJ       -7.1576019888298092e-03
    Z_566_1_2  constraint1_5661  1
    Z_566_1_2  constraint2_5662  1
    Z_566_1_3  OBJ       -2.2963929213955226e-02
    Z_566_1_3  constraint1_5661  1
    Z_566_1_3  constraint2_5663  1
    Z_566_5_0  OBJ       -6.9756651580308859e-02
    Z_566_5_0  constraint1_5665  1
    Z_566_5_0  constraint2_5660  1
    Z_566_5_1  OBJ       -1.5173853159477477e-01
    Z_566_5_1  constraint1_5665  1
    Z_566_5_1  constraint2_5661  1
    Z_566_5_2  OBJ       -1.0526017569316015e-02
    Z_566_5_2  constraint1_5665  1
    Z_566_5_2  constraint2_5662  1
    Z_566_5_3  OBJ       -1.7863253339075419e-03
    Z_566_5_3  constraint1_5665  1
    Z_566_5_3  constraint2_5663  1
    Z_566_2_0  OBJ       -2.5824368694450185e-02
    Z_566_2_0  constraint1_5662  1
    Z_566_2_0  constraint2_5660  1
    Z_566_2_1  OBJ       -6.1772977396144124e-02
    Z_566_2_1  constraint1_5662  1
    Z_566_2_1  constraint2_5661  1
    Z_566_2_2  OBJ       -3.0521236008634544e-03
    Z_566_2_2  constraint1_5662  1
    Z_566_2_2  constraint2_5662  1
    Z_566_2_3  OBJ       -1.5575983311865759e-02
    Z_566_2_3  constraint1_5662  1
    Z_566_2_3  constraint2_5663  1
    Z_566_7_0  OBJ       -1.2689435219602122e-01
    Z_566_7_0  constraint1_5667  1
    Z_566_7_0  constraint2_5660  1
    Z_566_7_1  OBJ       -1.3339522044478433e-01
    Z_566_7_1  constraint1_5667  1
    Z_566_7_1  constraint2_5661  1
    Z_566_7_2  OBJ       -1.4223488972006538e-03
    Z_566_7_2  constraint1_5667  1
    Z_566_7_2  constraint2_5662  1
    Z_566_7_3  OBJ       -6.6954008705877144e-02
    Z_566_7_3  constraint1_5667  1
    Z_566_7_3  constraint2_5663  1
    Z_566_4_0  OBJ       -5.5720171713045106e-04
    Z_566_4_0  constraint1_5664  1
    Z_566_4_0  constraint2_5660  1
    Z_566_4_1  OBJ       -3.1373927896289504e-02
    Z_566_4_1  constraint1_5664  1
    Z_566_4_1  constraint2_5661  1
    Z_566_4_2  OBJ       -2.1820933407040241e-01
    Z_566_4_2  constraint1_5664  1
    Z_566_4_2  constraint2_5662  1
    Z_566_4_3  OBJ       -1.0819465909331567e-02
    Z_566_4_3  constraint1_5664  1
    Z_566_4_3  constraint2_5663  1
    Z_566_6_0  OBJ       -1.3772386882099633e-01
    Z_566_6_0  constraint1_5666  1
    Z_566_6_0  constraint2_5660  1
    Z_566_6_1  OBJ       -3.0225558327294128e-01
    Z_566_6_1  constraint1_5666  1
    Z_566_6_1  constraint2_5661  1
    Z_566_6_2  OBJ       -2.5013985563423270e-03
    Z_566_6_2  constraint1_5666  1
    Z_566_6_2  constraint2_5662  1
    Z_566_6_3  OBJ       -2.1041157767474325e-01
    Z_566_6_3  constraint1_5666  1
    Z_566_6_3  constraint2_5663  1
    Z_566_3_0  OBJ       -5.5720171713045106e-04
    Z_566_3_0  constraint1_5663  1
    Z_566_3_0  constraint2_5660  1
    Z_566_3_1  OBJ       -3.1373927896289504e-02
    Z_566_3_1  constraint1_5663  1
    Z_566_3_1  constraint2_5661  1
    Z_566_3_2  OBJ       -2.1820933407040241e-01
    Z_566_3_2  constraint1_5663  1
    Z_566_3_2  constraint2_5662  1
    Z_566_3_3  OBJ       -1.0819465909331567e-02
    Z_566_3_3  constraint1_5663  1
    Z_566_3_3  constraint2_5663  1
    Z_566_0_0  OBJ       -1.3772386882099633e-01
    Z_566_0_0  constraint1_5660  1
    Z_566_0_0  constraint2_5660  1
    Z_566_0_1  OBJ       -3.0225558327294128e-01
    Z_566_0_1  constraint1_5660  1
    Z_566_0_1  constraint2_5661  1
    Z_566_0_2  OBJ       -2.5013985563423270e-03
    Z_566_0_2  constraint1_5660  1
    Z_566_0_2  constraint2_5662  1
    Z_566_0_3  OBJ       -2.1041157767474325e-01
    Z_566_0_3  constraint1_5660  1
    Z_566_0_3  constraint2_5663  1
    MARKER    'MARKER'                 'INTEND'
RHS
    RHS1      constraint1_5690  1
    RHS1      constraint1_3250  1
    RHS1      constraint1_650  1
    RHS1      constraint1_3870  1
    RHS1      constraint1_4500  1
    RHS1      constraint1_4060  1
    RHS1      constraint1_4990  1
    RHS1      constraint1_4410  1
    RHS1      constraint1_3000  1
    RHS1      constraint1_2760  1
    RHS1      constraint1_3350  1
    RHS1      constraint1_5668  1
    RHS1      constraint1_5661  1
    RHS1      constraint1_5665  1
    RHS1      constraint1_5662  1
    RHS1      constraint1_5667  1
    RHS1      constraint1_5664  1
    RHS1      constraint1_5666  1
    RHS1      constraint1_5663  1
    RHS1      constraint1_5660  1
    RHS1      constraint2_5690  1
    RHS1      constraint2_5691  1
    RHS1      constraint2_5692  1
    RHS1      constraint2_5693  1
    RHS1      constraint2_3250  1
    RHS1      constraint2_3251  1
    RHS1      constraint2_3252  1
    RHS1      constraint2_3253  1
    RHS1      constraint2_650  1
    RHS1      constraint2_651  1
    RHS1      constraint2_652  1
    RHS1      constraint2_653  1
    RHS1      constraint2_3870  1
    RHS1      constraint2_3871  1
    RHS1      constraint2_3872  1
    RHS1      constraint2_3873  1
    RHS1      constraint2_4500  1
    RHS1      constraint2_4501  1
    RHS1      constraint2_4502  1
    RHS1      constraint2_4503  1
    RHS1      constraint2_4060  1
    RHS1      constraint2_4061  1
    RHS1      constraint2_4062  1
    RHS1      constraint2_4063  1
    RHS1      constraint2_4990  1
    RHS1      constraint2_4991  1
    RHS1      constraint2_4992  1
    RHS1      constraint2_4993  1
    RHS1      constraint2_4410  1
    RHS1      constraint2_4411  1
    RHS1      constraint2_4412  1
    RHS1      constraint2_4413  1
    RHS1      constraint2_3000  1
    RHS1      constraint2_3001  1
    RHS1      constraint2_3002  1
    RHS1      constraint2_3003  1
    RHS1      constraint2_2760  1
    RHS1      constraint2_2761  1
    RHS1      constraint2_2762  1
    RHS1      constraint2_2763  1
    RHS1      constraint2_3350  1
    RHS1      constraint2_3351  1
    RHS1      constraint2_3352  1
    RHS1      constraint2_3353  1
    RHS1      constraint2_5660  1
    RHS1      constraint2_5661  1
    RHS1      constraint2_5662  1
    RHS1      constraint2_5663  1
BOUNDS
 UP BND1      Z_569_0_0  1
 UP BND1      Z_569_0_1  1
 UP BND1      Z_569_0_2  1
 UP BND1      Z_569_0_3  1
 UP BND1      Z_325_0_0  1
 UP BND1      Z_325_0_1  1
 UP BND1      Z_325_0_2  1
 UP BND1      Z_325_0_3  1
 UP BND1      Z_65_0_0  1
 UP BND1      Z_65_0_1  1
 UP BND1      Z_65_0_2  1
 UP BND1      Z_65_0_3  1
 UP BND1      Z_387_0_0  1
 UP BND1      Z_387_0_1  1
 UP BND1      Z_387_0_2  1
 UP BND1      Z_387_0_3  1
 UP BND1      Z_450_0_0  1
 UP BND1      Z_450_0_1  1
 UP BND1      Z_450_0_2  1
 UP BND1      Z_450_0_3  1
 UP BND1      Z_406_0_0  1
 UP BND1      Z_406_0_1  1
 UP BND1      Z_406_0_2  1
 UP BND1      Z_406_0_3  1
 UP BND1      Z_499_0_0  1
 UP BND1      Z_499_0_1  1
 UP BND1      Z_499_0_2  1
 UP BND1      Z_499_0_3  1
 UP BND1      Z_441_0_0  1
 UP BND1      Z_441_0_1  1
 UP BND1      Z_441_0_2  1
 UP BND1      Z_441_0_3  1
 UP BND1      Z_300_0_0  1
 UP BND1      Z_300_0_1  1
 UP BND1      Z_300_0_2  1
 UP BND1      Z_300_0_3  1
 UP BND1      Z_276_0_0  1
 UP BND1      Z_276_0_1  1
 UP BND1      Z_276_0_2  1
 UP BND1      Z_276_0_3  1
 UP BND1      Z_335_0_0  1
 UP BND1      Z_335_0_1  1
 UP BND1      Z_335_0_2  1
 UP BND1      Z_335_0_3  1
 UP BND1      Z_566_8_0  1
 UP BND1      Z_566_8_1  1
 UP BND1      Z_566_8_2  1
 UP BND1      Z_566_8_3  1
 UP BND1      Z_566_1_0  1
 UP BND1      Z_566_1_1  1
 UP BND1      Z_566_1_2  1
 UP BND1      Z_566_1_3  1
 UP BND1      Z_566_5_0  1
 UP BND1      Z_566_5_1  1
 UP BND1      Z_566_5_2  1
 UP BND1      Z_566_5_3  1
 UP BND1      Z_566_2_0  1
 UP BND1      Z_566_2_1  1
 UP BND1      Z_566_2_2  1
 UP BND1      Z_566_2_3  1
 UP BND1      Z_566_7_0  1
 UP BND1      Z_566_7_1  1
 UP BND1      Z_566_7_2  1
 UP BND1      Z_566_7_3  1
 UP BND1      Z_566_4_0  1
 UP BND1      Z_566_4_1  1
 UP BND1      Z_566_4_2  1
 UP BND1      Z_566_4_3  1
 UP BND1      Z_566_6_0  1
 UP BND1      Z_566_6_1  1
 UP BND1      Z_566_6_2  1
 UP BND1      Z_566_6_3  1
 UP BND1      Z_566_3_0  1
 UP BND1      Z_566_3_1  1
 UP BND1      Z_566_3_2  1
 UP BND1      Z_566_3_3  1
 UP BND1      Z_566_0_0  1
 UP BND1      Z_566_0_1  1
 UP BND1      Z_566_0_2  1
 UP BND1      Z_566_0_3  1
QUADOBJ
    Z_569_0_0  Z_499_0_0  -2.5310978907517566e-02
    Z_569_0_0  Z_566_5_0  -2.5310978907517566e-02
    Z_569_0_0  Z_566_2_0  -1.2499999999999997e-02
    Z_569_0_0  Z_566_3_0  -2.5310978907517566e-02
    Z_569_0_1  Z_499_0_1  -2.5310978907517566e-02
    Z_569_0_1  Z_566_5_1  -2.5310978907517566e-02
    Z_569_0_1  Z_566_2_1  -1.2499999999999997e-02
    Z_569_0_1  Z_566_3_1  -2.5310978907517566e-02
    Z_569_0_2  Z_499_0_2  -2.5310978907517566e-02
    Z_569_0_2  Z_566_5_2  -2.5310978907517566e-02
    Z_569_0_2  Z_566_2_2  -1.2499999999999997e-02
    Z_569_0_2  Z_566_3_2  -2.5310978907517566e-02
    Z_569_0_3  Z_499_0_3  -2.5310978907517566e-02
    Z_569_0_3  Z_566_5_3  -2.5310978907517566e-02
    Z_569_0_3  Z_566_2_3  -1.2499999999999997e-02
    Z_569_0_3  Z_566_3_3  -2.5310978907517566e-02
    Z_325_0_0  Z_65_0_0  -1.3293776932238844e-03
    Z_325_0_0  Z_387_0_0  -1.9999999999999996e-01
    Z_325_0_0  Z_450_0_0  -4.9526889558859019e-03
    Z_325_0_0  Z_499_0_0  -6.9655476678038170e-05
    Z_325_0_0  Z_441_0_0  -3.2182932060042489e-02
    Z_325_0_0  Z_276_0_0  -5.3309093269275163e-03
    Z_325_0_0  Z_566_5_0  -7.2665591020035600e-02
    Z_325_0_0  Z_566_2_0  -3.7275070167831145e-02
    Z_325_0_0  Z_566_7_0  -1.4735272926602685e-03
    Z_325_0_0  Z_566_4_0  -1.2499999999999997e-02
    Z_325_0_0  Z_566_6_0  -4.6197995785114329e-04
    Z_325_0_0  Z_566_3_0  -8.9764014563274135e-03
    Z_325_0_0  Z_566_0_0  -1.4735272926602685e-03
    Z_325_0_1  Z_65_0_1  -1.3293776932238844e-03
    Z_325_0_1  Z_387_0_1  -1.9999999999999996e-01
    Z_325_0_1  Z_450_0_1  -4.9526889558859019e-03
    Z_325_0_1  Z_499_0_1  -6.9655476678038170e-05
    Z_325_0_1  Z_441_0_1  -3.2182932060042489e-02
    Z_325_0_1  Z_276_0_1  -5.3309093269275163e-03
    Z_325_0_1  Z_566_5_1  -7.2665591020035600e-02
    Z_325_0_1  Z_566_2_1  -3.7275070167831145e-02
    Z_325_0_1  Z_566_7_1  -1.4735272926602685e-03
    Z_325_0_1  Z_566_4_1  -1.2499999999999997e-02
    Z_325_0_1  Z_566_6_1  -4.6197995785114329e-04
    Z_325_0_1  Z_566_3_1  -8.9764014563274135e-03
    Z_325_0_1  Z_566_0_1  -1.4735272926602685e-03
    Z_325_0_2  Z_65_0_2  -1.3293776932238844e-03
    Z_325_0_2  Z_387_0_2  -1.9999999999999996e-01
    Z_325_0_2  Z_450_0_2  -4.9526889558859019e-03
    Z_325_0_2  Z_499_0_2  -6.9655476678038170e-05
    Z_325_0_2  Z_441_0_2  -3.2182932060042489e-02
    Z_325_0_2  Z_276_0_2  -5.3309093269275163e-03
    Z_325_0_2  Z_566_5_2  -7.2665591020035600e-02
    Z_325_0_2  Z_566_2_2  -3.7275070167831145e-02
    Z_325_0_2  Z_566_7_2  -1.4735272926602685e-03
    Z_325_0_2  Z_566_4_2  -1.2499999999999997e-02
    Z_325_0_2  Z_566_6_2  -4.6197995785114329e-04
    Z_325_0_2  Z_566_3_2  -8.9764014563274135e-03
    Z_325_0_2  Z_566_0_2  -1.4735272926602685e-03
    Z_325_0_3  Z_65_0_3  -1.3293776932238844e-03
    Z_325_0_3  Z_387_0_3  -1.9999999999999996e-01
    Z_325_0_3  Z_450_0_3  -4.9526889558859019e-03
    Z_325_0_3  Z_499_0_3  -6.9655476678038170e-05
    Z_325_0_3  Z_441_0_3  -3.2182932060042489e-02
    Z_325_0_3  Z_276_0_3  -5.3309093269275163e-03
    Z_325_0_3  Z_566_5_3  -7.2665591020035600e-02
    Z_325_0_3  Z_566_2_3  -3.7275070167831145e-02
    Z_325_0_3  Z_566_7_3  -1.4735272926602685e-03
    Z_325_0_3  Z_566_4_3  -1.2499999999999997e-02
    Z_325_0_3  Z_566_6_3  -4.6197995785114329e-04
    Z_325_0_3  Z_566_3_3  -8.9764014563274135e-03
    Z_325_0_3  Z_566_0_3  -1.4735272926602685e-03
    Z_65_0_0  Z_566_4_0  -4.9999999999999989e-02
    Z_65_0_0  Z_566_3_0  -4.9356876961533167e-02
    Z_65_0_0  Z_566_0_0  -4.9356876961533167e-02
    Z_65_0_1  Z_566_4_1  -4.9999999999999989e-02
    Z_65_0_1  Z_566_3_1  -4.9356876961533167e-02
    Z_65_0_1  Z_566_0_1  -4.9356876961533167e-02
    Z_65_0_2  Z_566_4_2  -4.9999999999999989e-02
    Z_65_0_2  Z_566_3_2  -4.9356876961533167e-02
    Z_65_0_2  Z_566_0_2  -4.9356876961533167e-02
    Z_65_0_3  Z_566_4_3  -4.9999999999999989e-02
    Z_65_0_3  Z_566_3_3  -4.9356876961533167e-02
    Z_65_0_3  Z_566_0_3  -4.9356876961533167e-02
    Z_387_0_0  Z_566_7_0  -4.0816326530612231e-03
    Z_387_0_0  Z_566_6_0  -4.0816326530612231e-03
    Z_387_0_0  Z_566_3_0  -4.0816326530612231e-03
    Z_387_0_0  Z_566_0_0  -4.0816326530612231e-03
    Z_387_0_1  Z_566_7_1  -4.0816326530612231e-03
    Z_387_0_1  Z_566_6_1  -4.0816326530612231e-03
    Z_387_0_1  Z_566_3_1  -4.0816326530612231e-03
    Z_387_0_1  Z_566_0_1  -4.0816326530612231e-03
    Z_387_0_2  Z_566_7_2  -4.0816326530612231e-03
    Z_387_0_2  Z_566_6_2  -4.0816326530612231e-03
    Z_387_0_2  Z_566_3_2  -4.0816326530612231e-03
    Z_387_0_2  Z_566_0_2  -4.0816326530612231e-03
    Z_387_0_3  Z_566_7_3  -4.0816326530612231e-03
    Z_387_0_3  Z_566_6_3  -4.0816326530612231e-03
    Z_387_0_3  Z_566_3_3  -4.0816326530612231e-03
    Z_387_0_3  Z_566_0_3  -4.0816326530612231e-03
    Z_450_0_0  Z_406_0_0  -1.3666666666666666e-02
    Z_450_0_1  Z_406_0_1  -1.3666666666666666e-02
    Z_450_0_2  Z_406_0_2  -1.3666666666666666e-02
    Z_450_0_3  Z_406_0_3  -1.3666666666666666e-02
    Z_406_0_0  Z_566_4_0  -5.2984429065743943e-04
    Z_406_0_0  Z_566_3_0  -3.9163586184333770e-05
    Z_406_0_1  Z_566_4_1  -5.2984429065743943e-04
    Z_406_0_1  Z_566_3_1  -3.9163586184333770e-05
    Z_406_0_2  Z_566_4_2  -5.2984429065743943e-04
    Z_406_0_2  Z_566_3_2  -3.9163586184333770e-05
    Z_406_0_3  Z_566_4_3  -5.2984429065743943e-04
    Z_406_0_3  Z_566_3_3  -3.9163586184333770e-05
    Z_499_0_0  Z_566_5_0  -1.9999999999999996e-01
    Z_499_0_0  Z_566_2_0  -2.8124999999999994e-02
    Z_499_0_0  Z_566_4_0  -6.0535455224864799e-03
    Z_499_0_0  Z_566_3_0  -1.9999999999999996e-01
    Z_499_0_1  Z_566_5_1  -1.9999999999999996e-01
    Z_499_0_1  Z_566_2_1  -2.8124999999999994e-02
    Z_499_0_1  Z_566_4_1  -6.0535455224864799e-03
    Z_499_0_1  Z_566_3_1  -1.9999999999999996e-01
    Z_499_0_2  Z_566_5_2  -1.9999999999999996e-01
    Z_499_0_2  Z_566_2_2  -2.8124999999999994e-02
    Z_499_0_2  Z_566_4_2  -6.0535455224864799e-03
    Z_499_0_2  Z_566_3_2  -1.9999999999999996e-01
    Z_499_0_3  Z_566_5_3  -1.9999999999999996e-01
    Z_499_0_3  Z_566_2_3  -2.8124999999999994e-02
    Z_499_0_3  Z_566_4_3  -6.0535455224864799e-03
    Z_499_0_3  Z_566_3_3  -1.9999999999999996e-01
    Z_441_0_0  Z_566_4_0  -1.1834319526627217e-03
    Z_441_0_0  Z_566_3_0  -8.7473697628962378e-05
    Z_441_0_1  Z_566_4_1  -1.1834319526627217e-03
    Z_441_0_1  Z_566_3_1  -8.7473697628962378e-05
    Z_441_0_2  Z_566_4_2  -1.1834319526627217e-03
    Z_441_0_2  Z_566_3_2  -8.7473697628962378e-05
    Z_441_0_3  Z_566_4_3  -1.1834319526627217e-03
    Z_441_0_3  Z_566_3_3  -8.7473697628962378e-05
ENDATA
